p cnf 313 932
c t mc
-3 1 0
-3 -2 0
-1 2 3 0
5 -3 0
5 -4 0
3 4 -5 0
7 -5 0
7 -6 0
5 6 -7 0
-10 -1 0
-10 9 0
1 -9 10 0
8 10 -11 0
-8 -10 -11 0
8 -10 11 0
-8 10 11 0
-12 -7 0
-12 -11 0
7 11 12 0
14 15 -16 0
-14 -15 -16 0
14 -15 16 0
-14 15 16 0
17 13 0
17 -16 0
-13 16 -17 0
-18 19 -20 0
18 -19 -20 0
-18 -19 20 0
18 19 20 0
-22 -21 0
-22 18 0
21 -18 22 0
-23 20 0
-23 22 0
-20 -22 23 0
14 19 -25 0
-14 -19 -25 0
14 -19 25 0
-14 19 25 0
-24 -25 -26 0
24 25 -26 0
-24 25 26 0
24 -25 26 0
-4 26 -27 0
4 -26 -27 0
-4 -26 27 0
4 26 27 0
-28 -20 -29 0
28 20 -29 0
-28 20 29 0
28 -20 29 0
-30 27 0
-30 29 0
-27 -29 30 0
-33 -31 0
-33 32 0
31 -32 33 0
-34 30 0
-34 -33 0
-30 33 34 0
36 -20 0
36 35 0
20 -35 -36 0
-37 14 0
-37 -36 0
-14 36 37 0
38 -37 0
38 -1 0
37 1 -38 0
39 -34 0
39 38 0
34 -38 -39 0
23 39 -40 0
-23 -39 -40 0
23 -39 40 0
-23 39 40 0
41 -37 0
41 -14 0
37 14 -41 0
-42 37 0
-42 41 0
-37 -41 42 0
-40 42 -43 0
40 -42 -43 0
-40 -42 43 0
40 42 43 0
-17 43 -44 0
17 -43 -44 0
-17 -43 44 0
17 43 44 0
-12 -44 -45 0
12 44 -45 0
-12 44 45 0
12 -44 45 0
1 46 -47 0
-1 -46 -47 0
1 -46 47 0
-1 46 47 0
-48 36 0
-48 -47 0
-36 47 48 0
-49 16 0
-49 48 0
-16 -48 49 0
10 49 -50 0
-10 -49 -50 0
10 -49 50 0
-10 49 50 0
51 -45 0
51 -50 0
45 50 -51 0
-53 -52 0
-53 -28 0
52 28 53 0
54 15 0
54 -52 0
-15 52 -54 0
-55 -9 0
-55 -11 0
9 11 55 0
56 17 0
56 55 0
-17 -55 -56 0
57 -54 0
57 -56 0
54 56 -57 0
58 53 0
58 -57 0
-53 57 -58 0
-59 51 0
-59 -58 0
-51 58 59 0
-61 4 0
-61 -60 0
-4 60 61 0
-61 -46 -62 0
61 46 -62 0
-61 46 62 0
61 -46 62 0
-62 2 -63 0
62 -2 -63 0
-62 -2 63 0
62 2 63 0
64 59 0
64 63 0
-59 -63 -64 0
66 61 0
66 -13 0
-61 13 -66 0
-67 65 0
-67 66 0
-65 -66 67 0
60 19 -68 0
-60 -19 -68 0
60 -19 68 0
-60 19 68 0
69 -67 0
69 -68 0
67 68 -69 0
18 52 -70 0
-18 -52 -70 0
18 -52 70 0
-18 52 70 0
71 -60 0
71 4 0
60 -4 -71 0
-73 18 0
-73 -1 0
-18 1 73 0
-72 -73 -74 0
72 73 -74 0
-72 73 74 0
72 -73 74 0
-71 74 -75 0
71 -74 -75 0
-71 -74 75 0
71 74 75 0
-76 -70 0
-76 -75 0
70 75 76 0
77 -26 0
77 -13 0
26 13 -77 0
78 -76 0
78 -77 0
76 77 -78 0
79 -69 0
79 -78 0
69 78 -79 0
81 24 0
81 80 0
-24 -80 -81 0
79 81 -82 0
-79 -81 -82 0
79 -81 82 0
-79 81 82 0
83 64 0
83 82 0
-64 -82 -83 0
-84 -25 0
-84 29 0
25 -29 84 0
-85 18 0
-85 -84 0
-18 84 85 0
-52 70 -87 0
52 -70 -87 0
-52 -70 87 0
52 70 87 0
87 -20 -88 0
-87 20 -88 0
87 20 88 0
-87 -20 88 0
-89 86 0
-89 88 0
-86 -88 89 0
89 62 -90 0
-89 -62 -90 0
89 -62 90 0
-89 62 90 0
-91 85 0
-91 90 0
-85 -90 91 0
-93 28 0
-93 -92 0
-28 92 93 0
28 -93 -94 0
-28 93 -94 0
28 93 94 0
-28 -93 94 0
-95 91 0
-95 94 0
-91 -94 95 0
-97 47 0
-97 3 0
-47 -3 97 0
-98 -25 0
-98 97 0
25 -97 98 0
99 -98 0
99 66 0
98 -66 -99 0
100 -35 0
100 24 0
35 -24 -100 0
101 -99 0
101 100 0
99 -100 -101 0
96 -101 -102 0
-96 101 -102 0
96 101 102 0
-96 -101 102 0
-103 -95 0
-103 102 0
95 -102 103 0
-104 83 0
-104 103 0
-83 -103 104 0
-105 -29 0
-105 -67 0
29 67 105 0
-107 -21 0
-107 46 0
21 -46 107 0
108 -106 0
108 107 0
106 -107 -108 0
109 6 0
109 -53 0
-6 53 -109 0
-110 108 0
-110 109 0
-108 -109 110 0
-111 7 0
-111 -110 0
-7 110 111 0
113 -99 0
113 -112 0
99 112 -113 0
-68 -60 -114 0
68 60 -114 0
-68 60 114 0
68 -60 114 0
-115 -2 0
-115 6 0
2 -6 115 0
68 115 -116 0
-68 -115 -116 0
68 -115 116 0
-68 115 116 0
-117 -48 0
-117 -116 0
48 116 117 0
117 84 -118 0
-117 -84 -118 0
117 -84 118 0
-117 84 118 0
-119 -118 0
-119 -35 0
118 35 119 0
114 119 -120 0
-114 -119 -120 0
114 -119 120 0
-114 119 120 0
113 120 -121 0
-113 -120 -121 0
113 -120 121 0
-113 120 121 0
-122 111 0
-122 121 0
-111 -121 122 0
-105 122 -123 0
105 -122 -123 0
-105 -122 123 0
105 122 123 0
-124 29 0
-124 -112 0
-29 112 124 0
125 -124 0
125 2 0
124 -2 -125 0
125 -68 -126 0
-125 68 -126 0
125 68 126 0
-125 -68 126 0
127 123 0
127 -126 0
-123 126 -127 0
129 -128 0
129 31 0
128 -31 -129 0
-130 129 0
-130 68 0
-129 -68 130 0
-61 65 -131 0
61 -65 -131 0
-61 -65 131 0
61 65 131 0
-18 131 -132 0
18 -131 -132 0
-18 -131 132 0
18 131 132 0
-133 130 0
-133 -132 0
-130 132 133 0
134 -34 0
134 61 0
34 -61 -134 0
57 -134 -135 0
-57 134 -135 0
57 134 135 0
-57 -134 135 0
136 -133 0
136 135 0
133 -135 -136 0
137 -115 0
137 14 0
115 -14 -137 0
-136 137 -138 0
136 -137 -138 0
-136 -137 138 0
136 137 138 0
139 99 0
139 34 0
-99 -34 -139 0
140 138 0
140 -139 0
-138 139 -140 0
-141 -127 0
-141 140 0
127 -140 141 0
-142 104 0
-142 -141 0
-104 141 142 0
143 -74 0
143 -96 0
74 96 -143 0
144 143 0
144 20 0
-143 -20 -144 0
37 80 -145 0
-37 -80 -145 0
37 -80 145 0
-37 80 145 0
146 144 0
146 -145 0
-144 145 -146 0
147 112 0
147 46 0
-112 -46 -147 0
-148 -147 0
-148 30 0
147 -30 148 0
149 146 0
149 -148 0
-146 148 -149 0
150 -142 0
150 -149 0
142 149 -150 0
151 134 0
151 -147 0
-134 147 -151 0
151 62 -152 0
-151 -62 -152 0
151 -62 152 0
-151 62 152 0
-153 22 0
-153 -68 0
-22 68 153 0
-154 -153 0
-154 -86 0
153 86 154 0
-155 -89 0
-155 -47 0
89 47 155 0
156 -154 0
156 155 0
154 -155 -156 0
152 156 -157 0
-152 -156 -157 0
152 -156 157 0
-152 156 157 0
-158 35 0
-158 -24 0
-35 24 158 0
-159 114 0
-159 158 0
-114 -158 159 0
-160 -2 0
-160 48 0
2 -48 160 0
-160 -33 -161 0
160 33 -161 0
-160 33 161 0
160 -33 161 0
162 161 0
162 21 0
-161 -21 -162 0
159 -162 -163 0
-159 162 -163 0
159 162 163 0
-159 -162 163 0
165 25 0
165 164 0
-25 -164 -165 0
-166 163 0
-166 165 0
-163 -165 166 0
-157 166 -167 0
157 -166 -167 0
-157 -166 167 0
157 166 167 0
3 9 -168 0
-3 -9 -168 0
3 -9 168 0
-3 9 168 0
-170 36 0
-170 -169 0
-36 169 170 0
-171 -14 0
-171 -9 0
14 9 171 0
-172 -170 0
-172 -171 0
170 171 172 0
-112 -84 -173 0
112 84 -173 0
-112 84 173 0
112 -84 173 0
92 -11 -174 0
-92 11 -174 0
92 11 174 0
-92 -11 174 0
-175 173 0
-175 -174 0
-173 174 175 0
176 7 0
176 -27 0
-7 27 -176 0
-177 -175 0
-177 -176 0
175 176 177 0
178 -172 0
178 177 0
172 -177 -178 0
179 -19 0
179 55 0
19 -55 -179 0
-180 -179 0
-180 -61 0
179 61 180 0
181 -52 0
181 180 0
52 -180 -181 0
182 178 0
182 -181 0
-178 181 -182 0
-168 -182 -183 0
168 182 -183 0
-168 182 183 0
168 -182 183 0
-5 26 -184 0
5 -26 -184 0
-5 -26 184 0
5 26 184 0
-92 60 -185 0
92 -60 -185 0
-92 -60 185 0
92 60 185 0
186 -184 0
186 185 0
184 -185 -186 0
160 -21 -187 0
-160 21 -187 0
160 21 187 0
-160 -21 187 0
-187 36 -188 0
187 -36 -188 0
-187 -36 188 0
187 36 188 0
-2 7 -189 0
2 -7 -189 0
-2 -7 189 0
2 7 189 0
190 189 0
190 124 0
-189 -124 -190 0
191 -188 0
191 -190 0
188 190 -191 0
192 41 0
192 191 0
-41 -191 -192 0
193 -186 0
193 -192 0
186 192 -193 0
-52 10 -194 0
52 -10 -194 0
-52 -10 194 0
52 10 194 0
195 -37 0
195 -18 0
37 18 -195 0
196 195 0
196 -62 0
-195 62 -196 0
-197 196 0
-197 54 0
-196 -54 197 0
198 31 0
198 -3 0
-31 3 -198 0
199 -198 0
199 75 0
198 -75 -199 0
200 188 0
200 -199 0
-188 199 -200 0
-201 -197 0
-201 -200 0
197 200 201 0
-202 -36 0
-202 198 0
36 -198 202 0
203 -147 0
203 202 0
147 -202 -203 0
108 -26 -204 0
-108 26 -204 0
108 26 204 0
-108 -26 204 0
-205 203 0
-205 204 0
-203 -204 205 0
-201 205 -206 0
201 -205 -206 0
-201 -205 206 0
201 205 206 0
207 -194 0
207 206 0
194 -206 -207 0
38 17 -208 0
-38 -17 -208 0
38 -17 208 0
-38 17 208 0
-209 -207 0
-209 -208 0
207 208 209 0
-210 3 0
-210 31 0
-3 -31 210 0
-211 -210 0
-211 15 0
210 -15 211 0
-212 6 0
-212 -86 0
-6 86 212 0
-213 -86 0
-213 1 0
86 -1 213 0
-214 -212 0
-214 213 0
212 -213 214 0
215 100 0
215 -161 0
-100 161 -215 0
-101 -42 -216 0
101 42 -216 0
-101 42 216 0
101 -42 216 0
-217 -216 0
-217 -78 0
216 78 217 0
-218 215 0
-218 217 0
-215 -217 218 0
219 77 0
219 -22 0
-77 22 -219 0
220 218 0
220 -219 0
-218 219 -220 0
221 214 0
221 -220 0
-214 220 -221 0
211 -221 -222 0
-211 221 -222 0
211 221 222 0
-211 -221 222 0
-223 46 0
-223 -71 0
-46 71 223 0
224 -112 0
224 -38 0
112 38 -224 0
-225 29 0
-225 6 0
-29 -6 225 0
-226 224 0
-226 -225 0
-224 225 226 0
227 -191 0
227 11 0
191 -11 -227 0
-77 227 -228 0
77 -227 -228 0
-77 -227 228 0
77 227 228 0
-229 -226 0
-229 -228 0
226 228 229 0
223 -229 -230 0
-223 229 -230 0
223 229 230 0
-223 -229 230 0
231 -222 0
231 230 0
222 -230 -231 0
209 231 -232 0
-209 -231 -232 0
209 -231 232 0
-209 231 232 0
233 -193 0
233 232 0
193 -232 -233 0
234 60 0
234 80 0
-60 -80 -234 0
61 234 -235 0
-61 -234 -235 0
61 -234 235 0
-61 234 235 0
-236 -66 0
-236 7 0
66 -7 236 0
237 75 0
237 236 0
-75 -236 -237 0
237 99 -238 0
-237 -99 -238 0
237 -99 238 0
-237 99 238 0
239 112 0
239 -15 0
-112 15 -239 0
240 238 0
240 239 0
-238 -239 -240 0
-241 -169 0
-241 -62 0
169 62 241 0
-242 9 0
-242 60 0
-9 -60 242 0
-71 242 -243 0
71 -242 -243 0
-71 -242 243 0
71 242 243 0
-243 53 -244 0
243 -53 -244 0
-243 -53 244 0
243 53 244 0
245 174 0
245 242 0
-174 -242 -245 0
-246 173 0
-246 -245 0
-173 245 246 0
-244 -246 -247 0
244 246 -247 0
-244 246 247 0
244 -246 247 0
248 -241 0
248 247 0
241 -247 -248 0
249 -240 0
249 -248 0
240 248 -249 0
250 235 0
250 249 0
-235 -249 -250 0
-251 46 0
-251 49 0
-46 -49 251 0
251 131 -252 0
-251 -131 -252 0
251 -131 252 0
-251 131 252 0
-253 -250 0
-253 -252 0
250 252 253 0
254 -34 0
254 74 0
34 -74 -254 0
32 254 -255 0
-32 -254 -255 0
32 -254 255 0
-32 254 255 0
256 -158 0
256 87 0
158 -87 -256 0
255 256 -257 0
-255 -256 -257 0
255 -256 257 0
-255 256 257 0
-124 32 -258 0
124 -32 -258 0
-124 -32 258 0
124 32 258 0
-259 -258 0
-259 191 0
258 -191 259 0
257 -259 -260 0
-257 259 -260 0
257 259 260 0
-257 -259 260 0
-261 17 0
-261 -27 0
-17 27 261 0
-262 260 0
-262 261 0
-260 -261 262 0
263 34 0
263 -237 0
-34 237 -263 0
264 -3 0
264 31 0
3 -31 -264 0
170 264 -265 0
-170 -264 -265 0
170 -264 265 0
-170 264 265 0
263 265 -266 0
-263 -265 -266 0
263 -265 266 0
-263 265 266 0
62 -75 -267 0
-62 75 -267 0
62 75 267 0
-62 -75 267 0
268 267 0
268 236 0
-267 -236 -268 0
269 -266 0
269 268 0
266 -268 -269 0
-107 -89 -270 0
107 89 -270 0
-107 89 270 0
107 -89 270 0
-271 -74 0
-271 -13 0
74 13 271 0
-272 270 0
-272 -271 0
-270 271 272 0
-273 71 0
-273 -171 0
-71 171 273 0
-274 171 0
-274 -273 0
-171 273 274 0
-274 -90 -275 0
274 90 -275 0
-274 90 275 0
274 -90 275 0
-272 275 -276 0
272 -275 -276 0
-272 -275 276 0
272 275 276 0
277 -269 0
277 276 0
269 -276 -277 0
262 -277 -278 0
-262 277 -278 0
262 277 278 0
-262 -277 278 0
253 278 -279 0
-253 -278 -279 0
253 -278 279 0
-253 278 279 0
200 117 -280 0
-200 -117 -280 0
200 -117 280 0
-200 117 280 0
-282 281 0
-282 -159 0
-281 159 282 0
-283 -54 0
-283 282 0
54 -282 283 0
284 280 0
284 283 0
-280 -283 -284 0
285 24 0
285 169 0
-24 -169 -285 0
286 -117 0
286 100 0
117 -100 -286 0
-287 -109 0
-287 2 0
109 -2 287 0
-288 -287 0
-288 -38 0
287 38 288 0
288 42 -289 0
-288 -42 -289 0
288 -42 289 0
-288 42 289 0
33 227 -290 0
-33 -227 -290 0
33 -227 290 0
-33 227 290 0
291 289 0
291 -290 0
-289 290 -291 0
292 286 0
292 291 0
-286 -291 -292 0
293 285 0
293 -292 0
-285 292 -293 0
-294 284 0
-294 293 0
-284 -293 294 0
-295 -179 0
-295 -119 0
179 119 295 0
-296 36 0
-296 -295 0
-36 295 296 0
-297 -294 0
-297 296 0
294 -296 297 0
-85 -200 -298 0
85 200 -298 0
-85 200 298 0
85 -200 298 0
299 187 0
299 251 0
-187 -251 -299 0
-298 -299 -300 0
298 299 -300 0
-298 299 300 0
298 -299 300 0
-216 -22 -301 0
216 22 -301 0
-216 22 301 0
216 -22 301 0
-302 170 0
-302 -5 0
-170 5 302 0
-303 -301 0
-303 -302 0
301 302 303 0
-304 134 0
-304 35 0
-134 -35 304 0
179 304 -305 0
-179 -304 -305 0
179 -304 305 0
-179 304 305 0
-306 -303 0
-306 -305 0
303 305 306 0
-300 306 -307 0
300 -306 -307 0
-300 -306 307 0
300 306 307 0
-308 -297 0
-308 -307 0
297 307 308 0
-309 -279 0
-309 -308 0
279 308 309 0
233 -309 -310 0
-233 309 -310 0
233 309 310 0
-233 -309 310 0
-311 183 0
-311 -310 0
-183 310 311 0
167 311 -312 0
-167 -311 -312 0
167 -311 312 0
-167 311 312 0
-313 -150 0
-313 312 0
150 -312 313 0
313 0
